NAME : XML100_1145_16
DIMENSION : 101
NB_CLUSTERS : 7
CLUSTERING_ALG : KMedoids
CLUSTERING_PARAMS : k(6)
CLUSTERS
1 0
2 3 10 15 20 22 29 31 35 44 45 47 48 71 78 84 100
3 2 8 14 18 23 27 32 36 37 46 66 68 70 77 82 90 94 95 98
4 6 11 16 19 30 33 34 50 53 76 79 80 86 88 97
5 7 13 17 25 26 38 52 55 59 61 63 64 85 87 91 92 99
6 1 5 9 40 49 51 54 56 57 58 60 62 83 89 93
7 4 12 21 24 28 39 41 42 43 65 67 69 72 73 74 75 81 96
EOF